c This is QMaxSAT 2017 based on 14.07
c This is Glucose 3.0
c This is MiniSat 2.2.0
c WARNING: for repeatability, setting FPU to use double precision
c card = mrwto, comp = 0, pmodel = 0, narr = 3, mct = 24, verb = 0
cr firstCPXsol 0 0 0
c top = 81479
c |  Number of variables:    13366                                            |
c |  Number of clauses:      2826545                                          |
c |  Weight of hard clauses: 81479                                            |
c |  Number of soft clauses: 1656                                             |
c |  Number of unit soft clauses: 1656                                        |
c |  Maximum Cardinality (by unit): 244434       (244434      )               |
c last restart ## conflicts  :  0 601 
o 1563 | cpuTime 0.200475 s
c Sum of weights = 81478
c A number of soft clauses remained = 552
c MRWTO encoding for Pseudo-Boolean Constraints
c sizeMax=1563
c No.0 Divisor=12	generated by pow1
c No.1 Divisor=12	generated by pow1
c No.2 Divisor=12	generated by pow1
c p0= 12	p1= 12	p2= 12	
c number of digits = 4
c linkingVar[0].size = 12, linkingVar[1].size = 12, linkingVar[2].size = 11, linkingVar[3].size = 1, 
c Pseudo-Boolean Constraints: 12172 variables and 117969 clauses
c Sum of weights = 81478
c A number of soft clauses remained = 552
c MRWTO encoding for Pseudo-Boolean Constraints
c sizeMax=1563
c No.0 Divisor=12	generated by pow1
c No.1 Divisor=12	generated by pow1
c No.2 Divisor=12	generated by pow1
c p0= 12	p1= 12	p2= 12	
c number of digits = 4
c linkingVar[0].size = 12, linkingVar[1].size = 12, linkingVar[2].size = 11, linkingVar[3].size = 1, 
c Pseudo-Boolean Constraints: 12172 variables and 117969 clauses
c Sum of weights = 81478
c A number of soft clauses remained = 552
c MRWTO encoding for Pseudo-Boolean Constraints
c sizeMax=1563
c No.0 Divisor=12	generated by pow1
c No.1 Divisor=12	generated by pow1
c No.2 Divisor=12	generated by pow1
c p0= 12	p1= 12	p2= 12	
c number of digits = 4
c linkingVar[0].size = 12, linkingVar[1].size = 12, linkingVar[2].size = 11, linkingVar[3].size = 1, 
c Pseudo-Boolean Constraints: 12172 variables and 117969 clauses
c last restart ## conflicts  :  30 1656 
o 1553 | cpuTime 6.92986 s
c last restart ## conflicts  :  146 2199 
o 1258 | cpuTime 8.30361 s
c last restart ## conflicts  :  248 2989 
o 1213 | cpuTime 8.36211 s
c last restart ## conflicts  :  228 2517 
o 1048 | cpuTime 9.42894 s
c last restart ## conflicts  :  850 1200 
o 1021 | cpuTime 27.4168 s
c last restart ## conflicts  :  1122 1170 
o 1009 | cpuTime 40.2787 s
c last restart ## conflicts  :  164 3136 
o 949 | cpuTime 40.3392 s
c last restart ## conflicts  :  1227 1245 
o 920 | cpuTime 43.9422 s
c last restart ## conflicts  :  323 1923 
o 919 | cpuTime 44.1582 s
c last restart ## conflicts  :  2663 1241 
o 905 | cpuTime 114.977 s
c last restart ## conflicts  :  2479 1351 
o 870 | cpuTime 119.674 s
c last restart ## conflicts  :  3784 1277 
o 865 | cpuTime 123.564 s
c last restart ## conflicts  :  586 1349 
o 854 | cpuTime 286.805 s
c last restart ## conflicts  :  3046 1074 
o 847 | cpuTime 353.094 s
c last restart ## conflicts  :  594 1288 
o 826 | cpuTime 427.855 s
c last restart ## conflicts  :  65 1357 
o 787 | cpuTime 617.709 s
s UNKNOWN
c Search is stopped by a limit (maybe time-limit)
cr positiVarArr: [ | 16@1(1->16) | 56@1(3->8) | 97@1(5->1) | 165@1(7->21) | 173@1(8->5) | 243@1(11->3) | 367@1(16->7) | 419@1(18->11) | 450@1(19->18) | 499@1(21->19) | 590@2(1->14) | 807@2(10->15) | 841@2(12->1) | 898@2(14->10) | 934@2(15->22) | 972@2(17->12) | 1097@2(22->17) | 1158@3(1->6) | 1196@3(2->20) | 1225@3(4->1) | 1296@3(6->24) | 1357@3(9->13) | 1463@3(13->23) | 1617@3(20->9) | 1684@3(23->4) | 1706@3(24->2) | ]
cr the 1-th chain: [ 1->16->7->21->19->18->11->3->8->5->1 ] (#non-depot=9) {#cumul.=10}
cr the 2-th chain: [ 1->14->10->15->22->17->12->1 ] (#non-depot=6) {#cumul.=16}
cr the 3-th chain: [ 1->6->24->2->20->9->13->23->4->1 ] (#non-depot=8) {#cumul.=24}
c Latest Answer = 0 by 17 loops
c restarts              : 45046
c conflicts             : 14707624       (4096 /sec)
c decisions             : 54452820       (0.00 % random) (15165 /sec)
c propagations          : 20102183469    (5598418 /sec)
c conflict literals     : 3548031656     (47.16 % deleted)
c Memory used           : 951.00 MB
c CPU time              : 3590.69 s
